data/CVRPLIB/Vrp-Set-XML100/instances/XML100_3111_02.vrp
NAME : XML100_3111_02
COMMENT : Generated by Queiroga, Sadykov, Uchoa, and Vidal (2021)
TYPE : CVRP
DIMENSION : 101
EDGE_WEIGHT_TYPE : EUC_2D
CAPACITY : 4
NODE_COORD_SECTION
1    0    0   
2    986  239 
3    658  918 
4    9    596 
5    241  185 
6    247  134 
7    932  449 
8    5    195 
9    248  355 
10   711  957 
11   136  386 
12   943  308 
13   857  345 
14   854  933 
15   681  907 
16   371  323 
17   591  366 
18   868  617 
19   812  372 
20   430  443 
21   942  1000
22   306  828 
23   682  612 
24   721  927 
25   967  645 
26   117  175 
27   321  155 
28   274  34  
29   911  725 
30   726  264 
31   798  740 
32   799  254 
33   611  206 
34   880  427 
35   594  377 
36   884  862 
37   674  320 
38   529  428 
39   629  491 
40   699  328 
41   870  954 
42   328  495 
43   277  25  
44   835  86  
45   203  617 
46   904  392 
47   880  505 
48   431  325 
49   117  795 
50   5    300 
51   613  539 
52   689  926 
53   531  534 
54   242  808 
55   443  604 
56   246  586 
57   546  827 
58   728  751 
59   683  838 
60   229  599 
61   661  531 
62   40   398 
63   597  616 
64   134  578 
65   65   607 
66   603  250 
67   279  589 
68   38   639 
69   325  696 
70   310  211 
71   358  514 
72   545  161 
73   236  1000
74   662  98  
75   395  192 
76   138  674 
77   783  891 
78   944  362 
79   220  368 
80   669  608 
81   252  456 
82   440  441 
83   799  852 
84   184  22  
85   849  741 
86   462  615 
87   722  159 
88   481  520 
89   644  572 
90   731  651 
91   391  49  
92   619  528 
93   690  141 
94   87   589 
95   774  956 
96   549  953 
97   296  391 
98   845  841 
99   358  913 
100  123  636 
101  720  44  
DEMAND_SECTION
1    0   
2    1   
3    1   
4    1   
5    1   
6    1   
7    1   
8    1   
9    1   
10   1   
11   1   
12   1   
13   1   
14   1   
15   1   
16   1   
17   1   
18   1   
19   1   
20   1   
21   1   
22   1   
23   1   
24   1   
25   1   
26   1   
27   1   
28   1   
29   1   
30   1   
31   1   
32   1   
33   1   
34   1   
35   1   
36   1   
37   1   
38   1   
39   1   
40   1   
41   1   
42   1   
43   1   
44   1   
45   1   
46   1   
47   1   
48   1   
49   1   
50   1   
51   1   
52   1   
53   1   
54   1   
55   1   
56   1   
57   1   
58   1   
59   1   
60   1   
61   1   
62   1   
63   1   
64   1   
65   1   
66   1   
67   1   
68   1   
69   1   
70   1   
71   1   
72   1   
73   1   
74   1   
75   1   
76   1   
77   1   
78   1   
79   1   
80   1   
81   1   
82   1   
83   1   
84   1   
85   1   
86   1   
87   1   
88   1   
89   1   
90   1   
91   1   
92   1   
93   1   
94   1   
95   1   
96   1   
97   1   
98   1   
99   1   
100  1   
101  1   
DEPOT_SECTION
1
-1
EOF
