data/CVRPLIB/Vrp-Set-XML100/solutions/XML100_3111_02.sol
Route #1: 7 49 61 10
Route #2: 56 95 98 72
Route #3: 3 67 64 93
Route #4: 59 55 66 80
Route #5: 17 24 28 84
Route #6: 50 88 60 38
Route #7: 5 26 69 4
Route #8: 63 99 75 44
Route #9: 36 39 34 16
Route #10: 43 1 11 77
Route #11: 23 9 94 76
Route #12: 42 90 27 83
Route #13: 13 40 20 35
Route #14: 30 97 82 57
Route #15: 74 65 32 71
Route #16: 70 85 54 41
Route #17: 79 22 89 62
Route #18: 100 86 92 73
Route #19: 68 21 53 48
Route #20: 15 19 81 47
Route #21: 58 14 51 2
Route #22: 18 12 31 29
Route #23: 46 6 33 45
Route #24: 87 52 91 37
Route #25: 25 8 96 78
Cost 43500
